 # Version information for this restart file 
 # current date 2020-09-24 16:37:27.718
 # current working dir /home/jaehnigen/projects/vcd/systems/ss-trans-1-amino-2-indanol/setup/supercell_DMSO/pre-equ
 # Program compiled at                              Mon Jan 15 17:12:42 UTC 2018
 # Program compiled on                                           lgw01-amd64-018
 # Program compiled for                                    Linux-x86_64-gfortran
 # Source code revision number                                         svn:18091
 &GLOBAL
   PRINT_LEVEL  LOW
   PROJECT_NAME NVT
   RUN_TYPE  MD
 &END GLOBAL
 &MOTION
   &MD
     ENSEMBLE  NVT
     STEPS  1000000
     TIMESTEP     4.9999999999999994E-01
     STEP_START_VAL  100000
     TIME_START_VAL     4.9999999999949949E+04
     ECONS_START_VAL     1.6700695743423319E+00
     TEMPERATURE     3.0000000000000000E+02
     COMVEL_TOL     9.9999999999999998E-13
     ANGVEL_TOL     9.9999999999999998E-13
     &THERMOSTAT
       TYPE  CSVR
       REGION  GLOBAL
       &CSVR
         TIMECON     9.9999999999999982E+00
         &THERMOSTAT_ENERGY
              -1.9892401708095635E+00
         &END THERMOSTAT_ENERGY
         &RNG_INIT
Wiener process for Thermostat # 1        1 F T F   2.9567454832858014E-01        2587733665.0        1192275803.0         946476297.0        2653799301.0        1410109004.0        4094529810.0             12345.0             12345.0             12345.0             12345.0             12345.0             12345.0             12345.0             12345.0             12345.0             12345.0             12345.0             12345.0
         &END RNG_INIT
       &END CSVR
     &END THERMOSTAT
     &AVERAGES  T
       &RESTART_AVERAGES
         ITIMES_START  1
         AVECPU     9.8410946164099317E-03
         AVEHUGONIOT     0.0000000000000000E+00
         AVETEMP_BARO     0.0000000000000000E+00
         AVEPOT     1.6914862569445903E+00
         AVEKIN     2.0100850983301539E+00
         AVETEMP     2.9989790417206103E+02
         AVEKIN_QM     0.0000000000000000E+00
         AVETEMP_QM     0.0000000000000000E+00
         AVEVOL     1.1216015917452388E+05
         AVECELL_A     4.8225810911195360E+01
         AVECELL_B     4.8225810911195360E+01
         AVECELL_C     4.8225810911195360E+01
         AVEALPHA     9.0000000000000043E+01
         AVEBETA     9.0000000000000043E+01
         AVEGAMMA     9.0000000000000043E+01
         AVE_ECONS     1.0219400594329304E+00
         AVE_PRESS     0.0000000000000000E+00
         AVE_PXX     0.0000000000000000E+00
       &END RESTART_AVERAGES
     &END AVERAGES
     &PRINT
       &ENERGY  SILENT
       &END ENERGY
     &END PRINT
   &END MD
   &PRINT
     &TRAJECTORY  SILENT
       &EACH
         MD  1000
       &END EACH
     &END TRAJECTORY
     &VELOCITIES  SILENT
       &EACH
         MD  1000
       &END EACH
     &END VELOCITIES
     &RESTART  SILENT
       BACKUP_COPIES  0
       &EACH
         MD  1000
       &END EACH
     &END RESTART
     &RESTART_HISTORY  SILENT
       &EACH
         MD  100000
       &END EACH
     &END RESTART_HISTORY
   &END PRINT
 &END MOTION
 &FORCE_EVAL
   METHOD  FIST
   &MM
     &FORCEFIELD
       PARMTYPE  AMBER
       PARM_FILE_NAME supercell.prmtop
       &SPLINE
         RCUT_NB     1.0000000000000002E+01
         EMAX_SPLINE     1.0000000000000000E+04
       &END SPLINE
     &END FORCEFIELD
     &POISSON
       &EWALD
         EWALD_TYPE  SPME
         ALPHA     4.4000000000000000E-01
         GMAX  16
       &END EWALD
     &END POISSON
     &PRINT
       &FF_INFO  SILENT
       &END FF_INFO
     &END PRINT
   &END MM
   &SUBSYS
     &CELL
       A     2.5520000000000000E+01    0.0000000000000000E+00    0.0000000000000000E+00
       B     0.0000000000000000E+00    2.5520000000000000E+01    0.0000000000000000E+00
       C     0.0000000000000000E+00    0.0000000000000000E+00    2.5520000000000000E+01
       PERIODIC  XYZ
       MULTIPLE_UNIT_CELL  1 1 1
     &END CELL
     &COORD
C    1.4826738861328277E+01    1.3478991036594659E+01    1.5497913928661255E+01
C    1.5375582240132861E+01    1.2881820126940514E+01    1.4341957639973089E+01
C    1.5940368142845182E+01    1.1592125967411494E+01    1.4459218616143575E+01
C    1.6168117665894890E+01    1.1087378388650871E+01    1.5698349942517297E+01
C    1.5807315165218826E+01    1.1825730888909659E+01    1.6830287981129743E+01
C    1.5034670981026487E+01    1.3003462422984489E+01    1.6752083460013086E+01
C    1.4191243638914850E+01    1.4770015378942126E+01    1.5078850387720124E+01
C    1.5151923833031546E+01    1.3643618765912526E+01    1.3027534518315109E+01
C    1.4113151374983193E+01    1.4632285047317174E+01    1.3490977064299109E+01
H    1.6388673450256043E+01    1.1173317847810775E+01    1.3641887118188279E+01
H    1.6571151319177325E+01    1.0111182258400911E+01    1.5741582382512183E+01
H    1.5950552461367758E+01    1.1281449056916934E+01    1.7754386400066569E+01
H    1.4547191828330369E+01    1.3404481571554120E+01    1.7643651287383459E+01
H    1.4896683252736615E+01    1.5643082904656076E+01    1.5389816795253973E+01
H   1.4916487226229989E+01    1.2933106480289677E+01    1.2191559720998464E+01
H   1.6078983911093857E+01    1.4208751028843606E+01    1.2729034411819878E+01
H    1.3187676222735526E+01    1.4228884012560711E+01    1.3144967710545787E+01
H   1.2275835354794866E+01    1.4354937229684458E+01    1.5210307866859178E+01
H   1.2659018138555696E+01    1.5876125287044307E+01    1.4993243514146418E+01
H   1.3436460698197747E+01    1.6473294414907034E+01    1.3186240732982249E+01
N   1.2906103302559170E+01    1.5088690158453289E+01    1.5550112137562971E+01
O   1.4253866695461664E+01    1.5955525489591205E+01    1.2926595172527056E+01
C   1.4643275877262674E+01    6.0590594504141517E+00    1.9503589932489536E+01
C   1.5954655391094304E+01    3.7080455846817730E+00    2.0267156661884520E+01
H    1.5530885575891512E+01    6.7341397190674570E+00    1.9731260265237754E+01
H    1.4101333239906113E+01    5.9124853578366325E+00    2.0466259548487489E+01
H    1.3972137076128021E+01    6.5126251785005342E+00    1.8819410368665594E+01
H    1.6743297751401286E+01    2.9394238610634966E+00    2.0124166003859067E+01
H    1.5062145695060474E+01    3.1597941152389875E+00    2.0569921406890259E+01
H    1.6153978789243634E+01    4.3963521629096904E+00    2.1088080140028268E+01
O  1.4490120901933953E+01    3.8325217291559155E+00    1.7852896284926924E+01
S  1.5492127926943661E+01    4.6244097833278337E+00    1.8733395380459459E+01
C   8.8838679525545210E+00    7.1694235770580506E-01    1.3630964904688781E+01
C   9.2101855038548326E+00    1.9927004613864934E+00    1.1226602448902305E+01
H    8.0595124565938860E+00    3.5830409236126082E-01    1.3023445014760329E+01
H    8.6590838041861691E+00    6.7104712356252061E-01    1.4712007928400977E+01
H    9.7547236115809248E+00    1.1820440606552078E-01    1.3354501777328929E+01
H    8.2013542578338736E+00    1.9817637288869867E+00    1.0840940664312232E+01
H    9.7725094074211931E+00    1.0377179140469350E+00    1.1118192790092824E+01
H    9.7370746960436225E+00    2.6886222786931961E+00    1.0646805588172162E+01
O  8.0110541170400786E+00    3.2454962766256252E+00    1.3228570425439168E+01
S  9.1958307789618026E+00    2.3546281865354910E+00    1.2936616831983015E+01
C   1.2590460807955548E+01    1.7442303536095935E+01    2.6868522424654731E+01
C   1.4606845697015048E+01    1.8398665029501334E+01    2.8491105267587212E+01
H    1.1548041075896435E+01    1.7529408852366000E+01    2.6583682991018208E+01
H    1.2778153212571237E+01    1.6500092842398207E+01    2.7316560677233937E+01
H    1.3230166880873456E+01    1.7520461187334888E+01    2.5971499962039772E+01
H    1.4968556079920274E+01    1.9054133420468997E+01    2.9335510769007211E+01
H    1.5290223953763153E+01    1.8493245712908220E+01    2.7685304520260914E+01
H    1.4728821107555937E+01    1.7400185648576933E+01    2.8876562209698683E+01
O  1.3048630694218748E+01    2.0075902496280886E+01    2.7079644883427786E+01
S  1.2904565847778731E+01    1.8819972337790340E+01    2.7936445645136931E+01
C   1.1605758644641652E+01    2.4479745102842163E+01    2.7555631300258423E+01
C   9.2679913177429221E+00    2.5403656572836940E+01    2.8706646368987371E+01
H    1.1441404705062387E+01    2.5247516748728195E+01    2.6805061225162344E+01
H    1.2113429424899419E+01    2.3614832766958340E+01    2.7156261126928229E+01
H    1.2312257847281371E+01    2.4889166059160626E+01    2.8329479109616756E+01
H    9.7739347748757908E+00    2.5915395824379321E+01    2.9556763172655508E+01
H    8.2304743651403918E+00    2.5225501122950849E+01    2.8998262477736485E+01
H    9.2003371046410880E+00    2.6090874526148415E+01    2.7896049966357921E+01
O  9.1731309813718589E+00    2.3301311168843760E+01    2.7057738068599392E+01
S  1.0072701794085569E+01    2.3826270395794225E+01    2.8187092489214660E+01
C   2.3712208378903334E+01    1.0008723972514899E+01    7.9424148962684278E+00
C   2.1991832682327434E+01    1.0300868941924865E+01    1.0098940447225260E+01
H    2.3518566246692657E+01    8.9660288168474676E+00    8.0323722403148601E+00
H    2.4688751098514178E+01    1.0109573088524934E+01    7.4349618306966807E+00
H    2.3000937945581803E+01    1.0473586772348629E+01    7.2295433606450050E+00
H    2.1216237053852545E+01    1.0977624769050321E+01    9.6428450976672462E+00
H    2.1813111572044921E+01    1.0328170057673368E+01    1.1152934884649449E+01
H    2.1933388370192386E+01    9.2701920083367142E+00    9.7914390959460640E+00
O  2.4730023613081684E+01    1.0227795602152366E+01    1.0553383066026598E+01
S  2.3684515366226798E+01    1.0865822059427513E+01    9.6415303082880932E+00
C   1.8820735374131100E+01    1.9823600569442888E+01    1.9281283804388988E+01
C   1.8081228957709669E+01    1.9367792633875531E+01    2.1974368199199464E+01
H    1.8827353682535030E+01    1.9518525113295937E+01    1.8299801123338124E+01
H    1.9759233415674352E+01    1.9659400030317219E+01    1.9729341321228340E+01
H    1.8421342516437267E+01    2.0878228167544517E+01    1.9226033061447332E+01
H    1.9052297168961211E+01    1.9189525405483689E+01    2.2272832425947581E+01
H    1.7403032413471564E+01    1.8838561924981285E+01    2.2638824150827126E+01
H    1.7968323885550085E+01    2.0404918644331925E+01    2.2160243360637669E+01
O  1.6166802419123293E+01    1.9415976625996709E+01    2.0104989342597971E+01
S  1.7592280732443371E+01    1.8876556960481349E+01    2.0299851589779294E+01
C   1.9614754108962327E+01    2.4355217322484157E+00    2.4207130301849404E+01
C   1.7409117168832090E+01    1.3649192731924646E+00    2.3222029052654481E+01
H    2.0457724211815915E+01    3.1282388369025540E+00    2.4088331489005242E+01
H    1.9864595224804454E+01    1.3239555110548642E+00    2.4235023736081015E+01
H    1.9117071983284752E+01    2.7381227918897690E+00    2.5118176206689636E+01
H    1.6843891264246867E+01    1.6320295649006717E+00    2.4061190623854650E+01
H    1.7940895096543588E+01    4.5775338732432064E-01    2.3369774137733796E+01
H    1.6749216841265309E+01    1.2091517281573212E+00    2.2409384090060833E+01
O  1.7857840296807822E+01    4.0290204450919758E+00    2.2934587165730417E+01
S  1.8603395515232567E+01    2.6901063995495091E+00    2.2783277538123713E+01
C   6.5688887967962808E+00    1.8777118374380027E+01    8.6634709382462809E+00
C   5.0582121216555835E+00    1.7446946047194256E+01    1.0386297790378881E+01
H    7.1403054182795644E+00    1.7835947931107391E+01    8.8222918287711014E+00
H    7.0832690959909153E+00    1.9590992259330061E+01    9.2454412127652290E+00
H    6.6102940412024838E+00    1.8964858123645751E+01    7.6095409386436135E+00
H    5.9548678087494320E+00    1.7690051282295915E+01    1.1026690380484641E+01
H    5.1521149546343317E+00    1.6383719610930630E+01    9.9976875437335124E+00
H    4.1832384038087636E+00    1.7572731899762267E+01    1.1054210514181429E+01
O  4.5340391568713292E+00    1.9990890247068446E+01    9.8673885145126299E+00
S  4.8399224086326669E+00    1.8697394189243759E+01    9.1683476659760750E+00
C   1.4547796887549861E+01    2.4995022775201452E+00    1.4616282217409420E+01
C   1.2237099581601816E+01    3.0217424913620454E+00    1.6040153963809580E+01
H    1.5072277365587617E+01    3.5012430818168321E+00    1.4415957387745291E+01
H    1.5087648187002539E+01    1.8745648010005382E+00    1.3909293546574878E+01
H    1.4823320419599460E+01    2.0813197977512479E+00    1.5594425418178117E+01
H    1.2798741286278894E+01    3.9079110562410362E+00    1.6268164438606750E+01
H    1.2381675881999923E+01    2.2113049287349376E+00    1.6777222205532809E+01
H    1.1164731192358813E+01    3.2821386774965933E+00    1.6061753055770691E+01
O  1.2327596615807016E+01    3.5499967943487247E+00    1.3387283604695543E+01
S  1.2716470264494113E+01    2.4902940420648041E+00    1.4375311067100336E+01
C   1.1108462371609136E+01    7.1613304482446924E+00    4.9971871304535824E+00
C   1.2196315920152003E+01    7.5206655391579780E+00    7.5698472675196280E+00
H    1.1993513665494474E+01    7.1816319458129270E+00    4.3460821208078739E+00
H    1.0335964856413362E+01    7.3796970606878176E+00    4.2844938186848909E+00
H    1.0781981517769731E+01    6.1631571038358128E+00    5.3478156840865463E+00
H    1.1746141593644397E+01    7.7760032614322219E+00    8.5711760719130545E+00
H    1.3302486365179872E+01    7.7804781990698269E+00    7.6168913704238577E+00
H    1.2099525898498339E+01    6.4266713106237860E+00    7.4348847023039859E+00
O  1.2077684130748132E+01    9.5546944290826392E+00    5.8040847778864686E+00
S  1.1194997662638450E+01    8.4312654108028493E+00    6.3372823427440705E+00
C   1.8195346335201354E+01    1.0608229062944261E+01    2.2673063584180024E+01
C   1.7835920033243085E+01    1.0921446709225204E+01    2.5605833635078564E+01
H    1.8199413822254524E+01    9.7143910814676691E+00    2.2011575168011390E+01
H    1.9214109197341511E+01    1.0528820532141498E+01    2.3087764685603094E+01
H    1.8069621532670535E+01    1.1459256180773066E+01    2.2011654573769722E+01
H    1.7068106768047141E+01    1.0911505241494011E+01    2.6396938673182337E+01
H    1.8213831142107978E+01    1.1938423708631991E+01    2.5489416406473097E+01
H    1.8637252053877639E+01    1.0329721421286902E+01    2.6012861032111438E+01
O  1.5819991321699099E+01    1.1469668136988973E+01    2.3794475910669270E+01
S  1.7007056796331451E+01    1.0452397773991457E+01    2.4047500546354751E+01
C   2.5704043767077284E+01    2.4346081405622009E+01    1.3094633017359405E+01
C   2.3267298386391630E+01    2.3166237774025166E+01    1.2359891354281130E+01
H    2.6255569657056565E+01    2.3972996465564339E+01    1.2217959047966470E+01
H    2.5766509484300382E+01    2.3637922030384317E+01    1.4017173433984244E+01
H    2.6337195111264091E+01    2.5229075942652518E+01    1.3336353268365491E+01
H    2.3453081139047999E+01    2.2423375146805920E+01    1.3186524600334458E+01
H    2.3711209882370198E+01    2.2959420023356074E+01    1.1372790964561707E+01
H    2.2147909363116046E+01    2.3307304997122767E+01    1.2335044925399545E+01
O  2.3457309505865656E+01    2.5087364768145882E+01    1.4177350197340285E+01
S  2.4062450711111936E+01    2.4796227531742474E+01    1.2835474633336327E+01
C  -5.7014947634351509E-01    1.3886476811904494E+01    2.1874222521584784E+01
C   2.1740046697071698E+00    1.4198799294142468E+01    2.1375703379382500E+01
H   -1.4472774890334357E+00    1.4258980510343825E+01    2.2391376738184782E+01
H   -4.2571284702459455E-01    1.2828887004019530E+01    2.2156940488537710E+01
H   -6.5512017251931287E-01    1.4033410143609267E+01    2.0818679255622289E+01
H    2.3773340373868681E+00    1.3188279002538769E+01    2.1629750901631400E+01
H    3.1485547221858750E+00    1.4572621753702755E+01    2.1584660344828372E+01
H    1.7954383400648068E+00    1.4401308821485003E+01    2.0366131262814584E+01
O  6.9243460228005294E-01    1.6285843495527768E+01    2.2388794863544465E+01
S  8.9264665165233936E-01    1.4745284411947090E+01    2.2533060644608288E+01
C   5.1581136517705772E+00    4.5494021452717197E+00    1.3165688477326013E+01
C   2.9794233833860235E+00    3.3601562685906528E+00    1.4648319519907206E+01
H    5.6944899608180837E+00    4.8715712593026002E+00    1.4034031286954136E+01
H    4.3989262353596432E+00    5.2450417084520327E+00    1.2946102449588048E+01
H    5.7364600107327384E+00    4.4279262406156077E+00    1.2241635690752796E+01
H    2.3213027921661955E+00    2.4691893468976365E+00    1.4731591440167968E+01
H    2.3862299381057528E+00    4.2242844308425829E+00    1.4305903984412106E+01
H    3.3241629096983876E+00    3.5816349232814693E+00    1.5648582220426960E+01
O  3.8061990827215646E+00    2.4092748320360373E+00    1.2167101596103233E+01
S  4.3753813745121288E+00    2.9624441990586341E+00    1.3526400338272593E+01
C   2.1658664998456359E+01    4.7786525358733520E+00    3.7157308295879470E+00
C   2.0740344208924288E+01    2.0782271227046962E+00    4.0682771556098327E+00
H    2.2062758998806917E+01    5.5090831152079875E+00    2.9959139803034098E+00
H    2.2133471285101141E+01    4.8446559704377981E+00    4.6628362015308902E+00
H    2.0658516592753355E+01    4.9922317648964976E+00    3.9349379686637227E+00
H    2.0650983387931017E+01    1.0614848557863088E+00    3.7648901953277312E+00
H    1.9775888652019074E+01    2.5503156499261230E+00    4.1041225260856073E+00
H    2.1092535138473703E+01    2.1803443897027552E+00    5.0684293387085821E+00
O  2.1367159092369214E+01    2.9925966918821176E+00    1.6515490703945606E+00
S  2.1880359061823139E+01    3.0507157209194484E+00    3.0677610399477002E+00
C   1.3245962499966799E+01    1.3084759907542452E+01    1.0218576039855845E+01
C   1.3673757448506763E+01    1.1069893441550240E+01    8.2525549851042701E+00
H    1.2936490104847218E+01    1.2387766832781844E+01    1.0932567187976751E+01
H    1.2431320571280443E+01    1.3461558653951629E+01    9.6196520647634980E+00
H    1.3661657175745816E+01    1.3919514817749409E+01    1.0720877214180444E+01
H    1.4495357582357064E+01    1.0484555158755516E+01    7.7075247232853199E+00
H    1.3027174353736086E+01    1.1532868188724697E+01    7.5632906534976048E+00
H    1.3111328169351419E+01    1.0482074431870448E+01    8.8911336998747892E+00
O  1.4943680393104398E+01    1.3445916263641662E+01    8.1519357737236788E+00
S  1.4551477964365381E+01    1.2408332484633911E+01    9.1760620153669326E+00
C   4.2922994076578105E+00    6.0108220016771005E-02    1.9112229389850626E+01
C   3.3516976448251827E+00   -1.0993072027432798E+00    1.6784854834308270E+01
H    4.1968147694414819E+00   -9.8313002599944188E-01    1.9413090217683042E+01
H    3.4075013080312049E+00    6.0738121424614833E-01    1.9484442790502570E+01
H    5.1930099925249253E+00    4.1695430249334692E-01    1.9617754836976758E+01
H    3.0578788123355722E+00   -8.6170805470068534E-01    1.5774132676587367E+01
H    2.5461921645458250E+00   -1.2648485405076322E+00    1.7539858297111564E+01
H    4.0194014278771961E+00   -2.0248747522686026E+00    1.6747440422379672E+01
O  3.7159154837284358E+00    1.5143842657860358E+00    1.6911689932729505E+01
S  4.4205645406831957E+00    2.0108271738903921E-01    1.7325241237172936E+01
C   7.8766512012942345E+00    7.9663495142368497E+00    7.9455695288696786E+00
C   5.4242513349039623E+00    7.6097197925165583E+00    6.8120245709905625E+00
H    7.4706091053108850E+00    7.4260897223791016E+00    8.8241041056195648E+00
H    7.6311703625605869E+00    9.0657490884346004E+00    7.9491084284681888E+00
H    8.9706761396531736E+00    7.8243562557753803E+00    7.9392042681747039E+00
H    4.8293556707546204E+00    7.7736292925552215E+00    5.8780445160976722E+00
H    5.3283889539932012E+00    8.4420242457101491E+00    7.4408060039247035E+00
H    5.1096215956617499E+00    6.6690873931322567E+00    7.2846731848140314E+00
O  7.4459823169030219E+00    8.3956678341156810E+00    5.2572114142702286E+00
S  7.1514661378943529E+00    7.3451720675731051E+00    6.3975667234280724E+00
C   6.4291612401123759E+00    2.2619668609507425E+01    7.7204320208468058E+00
C   9.0038023538327145E+00    2.3445466139942518E+01    6.6787761396595897E+00
H    6.2963384388706505E+00    2.3694521354452629E+01    8.0809041757064861E+00
H    6.7827527286067077E+00    2.2095887793537052E+01    8.6120428577797448E+00
H    5.4547967906969896E+00    2.2267738368402405E+01    7.5025992942175286E+00
H    9.9000642702435151E+00    2.3113604460161529E+01    6.1762356363683928E+00
H    9.1706342482550163E+00    2.3443139524896136E+01    7.6937711880032316E+00
H    8.7793792440698315E+00    2.4438319430992550E+01    6.3358847523399699E+00
O  8.1278837873721024E+00    2.0878505463474507E+01    6.4369930552730539E+00
S  7.6018791846843135E+00    2.2351725480168611E+01    6.3364321061507107E+00
C   5.3007675316223635E-01    3.9371222614819730E+00    6.3673877792651297E+00
C   2.2908232145285212E+00    2.6367708500372129E+00    4.6208625029943340E+00
H   -1.5835501865396343E-01    3.1651732763908682E+00    5.9813425569345657E+00
H    8.7926760874493404E-03    4.8690316904517390E+00    6.6273090627107107E+00
H    9.2626356183445224E-01    3.4497513742102996E+00    7.2547274438578215E+00
H    1.5016575157078689E+00    1.9257498997103568E+00    4.3555832256886760E+00
H    2.7093239326177114E+00    2.1993537321031233E+00    5.5421399509474822E+00
H    3.0333293763560407E+00    2.7276675674751010E+00    3.7901597845632384E+00
O  1.0644923586962385E+00    4.8349535316257981E+00    3.8971789306102913E+00
S  1.8458372496039119E+00    4.3281366539891462E+00    5.0930688669470339E+00
C   1.7005679806022801E+01    2.1217602274314665E+01    2.4820184187242020E+00
C   1.4600001304745891E+01    2.2503027997722434E+01    2.8787250296575024E+00
H    1.7895820390668018E+01    2.0777812367155676E+01    2.9397859635021986E+00
H    1.7216716936842897E+01    2.1641415993608359E+01    1.5431316173565217E+00
H    1.6371411789537952E+01    2.0361720075334883E+01    2.3261086806609250E+00
H    1.4477714605120109E+01    2.1717291330029497E+01    2.1304001244856994E+00
H    1.4509512803428949E+01    2.3413335774106450E+01    2.3222786345177493E+00
H    1.3789595385426203E+01    2.2447502408473614E+01    3.5692356181384484E+00
O  1.6157124323933061E+01    2.1659492363003011E+01    5.0346262179200476E+00
S  1.6192378450429853E+01    2.2356492655820041E+01    3.6389953609434662E+00
C   1.3789259015493724E+00    1.8179837620471922E+01    9.7308703195708102E+00
C   1.3555972778968755E+00    2.0966289058040587E+01    1.0006872480417762E+01
H    2.3329740841478963E+00    1.8134452373058018E+01    1.0137845643039757E+01
H    1.4812922203691339E+00    1.8250866998291293E+01    8.6933748653617133E+00
H    8.4779182335624270E-01    1.7243573754827690E+01    9.9389585475216666E+00
H    1.6563763297921785E+00    2.0822895985275839E+01    9.0046905583294254E+00
H    2.2133103972863704E+00    2.0892606339280384E+01    1.0658085483131144E+01
H    7.2099421305330191E-01    2.1874836073773331E+01    1.0092544231417767E+01
O -8.8880645196910057E-01    1.9523768969100516E+01    9.5885242176299421E+00
S  3.2871478913315566E-01    1.9478105348125801E+01    1.0444936115712101E+01
C   1.4512667587874351E+01    3.7688267106688897E+00    7.5583297957116278E+00
C   1.5420323665776259E+01    3.3851142939838326E+00    4.8766007929766868E+00
H    1.5391673184997803E+01    3.1640890941872395E+00    7.8550795535455737E+00
H    1.3645301537479089E+01    3.1336465320088416E+00    7.4711921996521919E+00
H    1.4190197509702207E+01    4.4868776879508587E+00    8.3223060901875172E+00
H    1.6346860451431258E+01    3.7841744478592085E+00    4.4760623260619470E+00
H    1.4818170341205638E+01    3.2101978499428268E+00    3.9436117695541393E+00
H    1.5498809800673836E+01    2.4419719393802208E+00    5.3572841484380378E+00
O  1.3464471717079482E+01    5.3468918159703147E+00    5.5050164725535353E+00
S  1.4759934649784364E+01    4.6548692751012286E+00    5.9663384674083444E+00
C   2.5629529711562725E+01    1.7161353794248633E+01    1.3195384306433841E+01
C   2.6417777112415425E+01    1.6076225138857176E+01    1.5770403209052914E+01
H    2.6060712664189388E+01    1.8063518889709851E+01    1.2884878234616624E+01
H    2.4871603845117875E+01    1.6978276381571192E+01    1.2487309740607083E+01
H    2.6322766076327397E+01    1.6277106320527867E+01    1.2995123258068418E+01
H    2.6476514571424733E+01    1.5070788322036496E+01    1.5371441492492844E+01
H    2.6328246226188153E+01    1.6013155144383706E+01    1.6869125890507860E+01
H    2.7428905645133177E+01    1.6528308047377802E+01    1.5680963138985843E+01
O  2.5053815670166252E+01    1.8429765599557793E+01    1.5648485227372847E+01
S  2.5089925820251214E+01    1.7063516666100988E+01    1.4949891165622974E+01
C   1.6215544373314383E+01    1.8049009634575228E+01    1.4903688866082312E+01
C   1.8222902058933606E+01    1.9786236358114508E+01    1.5759276000026141E+01
H    1.5119347650310603E+01    1.7773354311381752E+01    1.5065202096959986E+01
H    1.6924825665915641E+01    1.7192763350828770E+01    1.4839869760911824E+01
H    1.6319168516139030E+01    1.8756436704435387E+01    1.4061213880520850E+01
H    1.8144453154081610E+01    2.0505406257861193E+01    1.4944932050813771E+01
H    1.8938528324755726E+01    1.8985416475976681E+01    1.5586891818718277E+01
H    1.8577913664240523E+01    2.0365236983736747E+01    1.6638959083833370E+01
O  1.5660369970082545E+01    2.0211212779693582E+01    1.6239578363630677E+01
S  1.6672847769492911E+01    1.9065503823740876E+01    1.6347155028110421E+01
C   1.2583158546977906E+00    7.7680733334913672E+00    1.3327619863717570E+00
C  -2.4712110730458209E-01    5.8564154906445332E+00   -3.7240142491468224E-02
H    9.6241132403315177E-01    8.6534143633946261E+00    1.7717389414291451E+00
H    2.3329766744121576E+00    7.7737344534994097E+00    9.7856407813016477E-01
H    1.1528402199339556E+00    7.0149959273249589E+00    2.1199685925898275E+00
H    5.7554492214865183E-01    5.4080823500302708E+00   -6.6614055884714840E-01
H   -1.2501346586863546E+00    5.6097513043884986E+00   -3.9473871588774528E-01
H   -1.7271696593946972E-01    5.4260031849591908E+00    9.1484233474202858E-01
O -1.2568084096484071E+00    8.2413068065628199E+00    2.9915715520202885E-01
S  9.2045842425021840E-02    7.6034749046807004E+00   -7.2159640233549274E-02
C   9.0128401846554667E+00    1.0891026654191437E+01    4.2192042874483553E+00
C   9.3550057374905489E+00    1.2019807474462800E+01    6.8054737863303938E+00
H    9.9433953080877249E+00    1.1424913949762571E+01    4.1072498836138065E+00
H    8.4384214394228767E+00    1.0835176416662197E+01    3.2895760450980851E+00
H    9.3477165975863361E+00    9.8588512496354834E+00    4.3201923116617715E+00
H    9.9083681270116362E+00    1.1114388380011128E+01    7.1463811515209255E+00
H    9.0143530483085410E+00    1.2610803605522904E+01    7.6440240870278773E+00
H    1.0162399189524347E+01    1.2463259256760798E+01    6.1851148266344431E+00
O  7.2231731200251925E+00    1.2776089310952607E+01    5.2070698001255016E+00
S  8.0786378553091645E+00    1.1557549370112945E+01    5.6067060741816332E+00
C   4.1864125788535880E+00   -2.7090617909832559E+00    1.1362394836376302E+01
C   4.4415314223978983E+00   -6.1725383645666820E-01    1.3293282487575713E+01
H    4.2580111047128915E+00   -3.0288933842619894E+00    1.0334095601561259E+01
H    3.1484984023516693E+00   -2.6622325695770774E+00    1.1691462150523970E+01
H    4.7466117936310850E+00   -3.4242579997797811E+00    1.2026689831297192E+01
H    4.3975546482285353E+00   -1.5160616811805070E+00    1.3814237967636247E+01
H    3.3422644401280732E+00   -3.0631720813886942E-01    1.3288717254910592E+01
H    5.0502062720774719E+00    1.1191248152573505E-01    1.3832654213669425E+01
O  6.4367748599507983E+00   -1.2712743074689892E+00    1.1569341978667143E+01
S  4.9207322088159593E+00   -9.8613059864416464E-01    1.1595033618781981E+01
C   1.2746376141620567E+01    6.9052744533724191E+00    1.5768387174398786E+01
C   1.2693935512564050E+01    9.7057506586184612E+00    1.5072683160516247E+01
H    1.3061037133705456E+01    6.0801284958339457E+00    1.6506021269245792E+01
H    1.3268462704931006E+01    6.6844968101831199E+00    1.4787542666284800E+01
H    1.1666413212699679E+01    6.8881426320750716E+00    1.5735265247303639E+01
H    1.2707777979587997E+01    9.1817748332285340E+00    1.4087510724076422E+01
H    1.3432764823486337E+01    1.0460254902505103E+01    1.5164131340866264E+01
H    1.1628390502477867E+01    1.0097128636579452E+01    1.5156399000344424E+01
O  1.2208613595295718E+01    8.7744186952328782E+00    1.7515249104471412E+01
S  1.3168608154317633E+01    8.5560861874953797E+00    1.6387836468991530E+01
C   7.2162330358849029E+00    7.0182922720575946E-01   -2.8428925949071776E-01
C   6.4314135979290690E+00    3.3007678602928370E+00    3.4462787623796197E-02
H    8.1802917033033786E+00    1.2043003638833178E+00   -3.3319968894062807E-01
H    7.2732044095576134E+00   -1.7872475649400527E-01   -8.6849107172341189E-01
H    7.3340076281081661E+00    5.4017662224022811E-01    8.1792719049323337E-01
H    6.8038141246823507E+00    4.0514886156862513E+00   -6.7919155231856865E-01
H    7.1231169855037946E+00    2.9859644189250405E+00    8.6565648525641514E-01
H    5.5499785239967414E+00    3.7028092518067157E+00    5.3691274699815206E-01
O  5.6871685259623366E+00    1.8778902562892585E+00   -2.1223020142530795E+00
S  5.7516544667328775E+00    1.7314317931676957E+00   -5.7136896558862960E-01
C   1.3628775384605047E+01    2.6145756217612416E+01    1.8977556935388069E+01
C   1.6333517768668788E+01    2.5727673903602394E+01    1.8066623091101352E+01
H    1.2933761136930237E+01    2.5561615190227116E+01    1.8329663204920649E+01
H    1.3824981228349163E+01    2.7180452061209280E+01    1.8652236628655302E+01
H    1.3039119218050420E+01    2.6226309366433767E+01    1.9874555168402935E+01